
   AbsCon 1.41 (January, 2014) - defaultConfiguration

   
   instance
        framework=CSP  name=Isomorphism-/cluster/gpg/ciaran/sip-benchmarks/benchmarks/meshes-CVIU11/patterns/pattern2-/cluster/gpg/ciaran/sip-benchmarks/benchmarks/meshes-CVIU11/targets/target511
        parameters=/cluster/gpg/ciaran/sip-benchmarks/benchmarks/meshes-CVIU11/patterns/pattern2,/cluster/gpg/ciaran/sip-benchmarks/benchmarks/meshes-CVIU11/targets/target511
      

   loading variables...
        nbVariables=129  nbDomainTypes=1  nbTotalValues=473430  domainSizes=(3670:129)
          =>  wckTime=0.276  cpuTime=0.351  mem=120M408

   loading objectives...

   loading constraints...
        nbConstraints=382  nbSpecificConstraints=1  nbExtensionStructures=(1,shared:380)  nbConflictsStructures=(1,shared:380,unbuilt:1)
        degrees=(5:2)(6:13)(7:112)(9:1)(10:1)  arities=(2:381)(129:1)  types=(AllDifferent:1)(ConstraintHardExtensionV-Bits:381)
          =>  wckTime=0.638  cpuTime=0.694  mem=155M397

   INFO : <!-- Start saving the XML representation -->

   INFO : <!-- Stop saving the XML representation of target511.xml -->

   Solver SolverBacktrack being built... 

   INFO : Stop creating residues for RevisionManagerBitRm
          =>  wckTime=3.097  cpuTime=3.061  mem=938M528

   
   search
        run=0  nbConstraintChecks=0  depth=(min:0,max:0,avg:1)  nbEffectivePropagations=26581  nbRevisions=181846  nbUselessRevisions=155266
        nbAssignments=3650  nbFailedAssignments=3650  nbBacktracks=1  nbVisitedNodes=7301  nbRestartNogoods=0
          =>  wckTime=770.016  cpuTime=767.372  mem=5080M660

   
   global
        nbConstraintChecks=0  nbEffectivePropagations=26581  nbRevisions=181846  nbUselessRevisions=155266  nbRestartNogoods=0
        solvingWckTime=770.017  expiredTime=no  totalExploration=yes  nbFoundSolutions=0  Stop=FULL_EXPLORATION
          =>  wckTime=773.114  cpuTime=767.372  mem=5080M660

s UNSATISFIABLE
d NODES 3650

   totalWckTime=773.02  totalCpuTime=767.373
